c cksystemsgroup.github.io/unicorn
c CNF contains a total of 127 clauses.
c CNF contains a total of 41 variables.
c CNF clauses cover 1 bad states.
c Variable name mapping (17 names):
c   1: input[bit=0]
c   2: input[bit=0]
c   5: input[bit=1]
c   6: input[bit=1]
c   10: input[bit=2]
c   11: input[bit=2]
c   15: input[bit=3]
c   16: input[bit=3]
c   21: input[bit=4]
c   22: input[bit=4]
c   26: input[bit=5]
c   27: input[bit=5]
c   31: input[bit=6]
c   32: input[bit=6]
c   36: input[bit=7]
c   37: input[bit=7]
c   41: ?
p cnf 41 127
1 2 -3 0
1 -2 3 0
-1 2 3 0
-1 -2 -3 0
-3 -4 0
3 4 0
-1 -2 7 0
1 -7 0
2 -7 0
5 6 7 -8 0
5 6 -7 8 0
5 -6 7 8 0
5 -6 -7 -8 0
-5 6 7 8 0
-5 6 -7 -8 0
-5 -6 7 -8 0
-5 -6 -7 8 0
-4 -8 9 0
4 -9 0
8 -9 0
5 6 -12 0
5 7 -12 0
-6 -7 12 0
6 7 -12 0
-5 -7 12 0
-5 -6 12 0
10 11 12 -13 0
10 11 -12 13 0
10 -11 12 13 0
10 -11 -12 -13 0
-10 11 12 13 0
-10 11 -12 -13 0
-10 -11 12 -13 0
-10 -11 -12 13 0
-9 -13 14 0
9 -14 0
13 -14 0
10 11 -17 0
10 12 -17 0
-11 -12 17 0
11 12 -17 0
-10 -12 17 0
-10 -11 17 0
15 16 17 -18 0
15 16 -17 18 0
15 -16 17 18 0
15 -16 -17 -18 0
-15 16 17 18 0
-15 16 -17 -18 0
-15 -16 17 -18 0
-15 -16 -17 18 0
-18 -19 0
18 19 0
-14 -19 20 0
14 -20 0
19 -20 0
15 16 -23 0
15 17 -23 0
-16 -17 23 0
16 17 -23 0
-15 -17 23 0
-15 -16 23 0
21 22 23 -24 0
21 22 -23 24 0
21 -22 23 24 0
21 -22 -23 -24 0
-21 22 23 24 0
-21 22 -23 -24 0
-21 -22 23 -24 0
-21 -22 -23 24 0
-20 -24 25 0
20 -25 0
24 -25 0
21 22 -28 0
21 23 -28 0
-22 -23 28 0
22 23 -28 0
-21 -23 28 0
-21 -22 28 0
26 27 28 -29 0
26 27 -28 29 0
26 -27 28 29 0
26 -27 -28 -29 0
-26 27 28 29 0
-26 27 -28 -29 0
-26 -27 28 -29 0
-26 -27 -28 29 0
-25 -29 30 0
25 -30 0
29 -30 0
26 27 -33 0
26 28 -33 0
-27 -28 33 0
27 28 -33 0
-26 -28 33 0
-26 -27 33 0
31 32 33 -34 0
31 32 -33 34 0
31 -32 33 34 0
31 -32 -33 -34 0
-31 32 33 34 0
-31 32 -33 -34 0
-31 -32 33 -34 0
-31 -32 -33 34 0
-30 -34 35 0
30 -35 0
34 -35 0
31 32 -38 0
31 33 -38 0
-32 -33 38 0
32 33 -38 0
-31 -33 38 0
-31 -32 38 0
36 37 38 -39 0
36 37 -38 39 0
36 -37 38 39 0
36 -37 -38 -39 0
-36 37 38 39 0
-36 37 -38 -39 0
-36 -37 38 -39 0
-36 -37 -38 39 0
-39 -40 0
39 40 0
-35 -40 41 0
35 -41 0
40 -41 0
41 0
